Version identifier: 22.1.0.0 | 2022-03-09 | 1a383f8ce
CPXPARAM_Threads                                 1
CPXPARAM_MIP_Strategy_VariableSelect             3
CPXPARAM_TimeLimit                               599.68400556699999
1 of 1 MIP starts provided solutions.
MIP start 'm1' defined initial solution with objective 92.0000.
Tried aggregator 2 times.
MIP Presolve eliminated 34 rows and 1 columns.
MIP Presolve added 28 rows and 7 columns.
MIP Presolve modified 105 coefficients.
Aggregator did 7 substitutions.
Reduced MIP has 613 rows, 2600 columns, and 32648 nonzeros.
Reduced MIP has 2600 binaries, 0 generals, 0 SOSs, and 0 indicators.
Presolve time = 0.05 sec. (68.21 ticks)
Probing time = 0.01 sec. (9.55 ticks)
Tried aggregator 1 time.
Detecting symmetries...
MIP Presolve modified 11 coefficients.
Reduced MIP has 613 rows, 2600 columns, and 33051 nonzeros.
Reduced MIP has 2600 binaries, 0 generals, 0 SOSs, and 0 indicators.
Presolve time = 0.03 sec. (34.81 ticks)
Probing time = 0.01 sec. (9.62 ticks)
Clique table members: 399.
MIP emphasis: balance optimality and feasibility.
MIP search method: dynamic search.
Parallel mode: none, using 1 thread.
Root relaxation solution time = 0.29 sec. (355.76 ticks)

        Nodes                                         Cuts/
   Node  Left     Objective  IInf  Best Integer    Best Bound    ItCnt     Gap

*     0+    0                           92.0000     5050.0000              --- 
      0     0      100.0000   449       92.0000      100.0000     2452    8.70%
      0     0      100.0000   466       92.0000       Cuts: 9     5144    8.70%
      0     0      100.0000   422       92.0000      Cuts: 11     7794    8.70%
      0     0      100.0000   292       92.0000    Cliques: 3    10179    8.70%
      0     0      100.0000   400       92.0000      Cuts: 11    11203    8.70%
Detecting symmetries...
      0     2      100.0000   140       92.0000      100.0000    11203    8.70%
Elapsed time = 13.64 sec. (14850.21 ticks, tree = 0.01 MB, solutions = 1)
      1     2       99.0000   466       92.0000      100.0000    14606    8.70%
      2     3      100.0000   391       92.0000      100.0000    17466    8.70%
      3     4      100.0000   326       92.0000      100.0000    21106    8.70%
      5     6      100.0000   319       92.0000      100.0000    21139    8.70%
      7     8      100.0000   306       92.0000      100.0000    22974    8.70%
      9    10      100.0000   315       92.0000      100.0000    28151    8.70%
     10    11      100.0000   281       92.0000      100.0000    29326    8.70%
     12    13      100.0000   278       92.0000      100.0000    29559    8.70%
     14    14       99.3889   430       92.0000      100.0000    32743    8.70%
     17    16       99.3471   386       92.0000      100.0000    40113    8.70%
Elapsed time = 19.43 sec. (21426.54 ticks, tree = 0.08 MB, solutions = 1)
     19    18      100.0000   232       92.0000      100.0000    46024    8.70%
     22    21      100.0000   249       92.0000      100.0000    51926    8.70%
     25    23       99.3158   340       92.0000      100.0000    58323    8.70%
     31    28      100.0000   189       92.0000      100.0000    62812    8.70%
     35    30      100.0000   212       92.0000      100.0000    69814    8.70%
     40    34       99.0000   240       92.0000      100.0000    78754    8.70%
     44    37      100.0000   201       92.0000      100.0000    89578    8.70%
     48    41      100.0000   181       92.0000      100.0000    94745    8.70%
*    50+   40                           95.0000      100.0000             5.26%
     50    42      100.0000   191       95.0000      100.0000    99119    5.26%
     54    44       99.8422   291       95.0000      100.0000   111522    5.26%
Elapsed time = 30.34 sec. (33090.66 ticks, tree = 0.22 MB, solutions = 2)
     58    48       99.0000   198       95.0000      100.0000   116857    5.26%
     63    53       99.0000   119       95.0000      100.0000   121324    5.26%
     69    56       98.3333   155       95.0000      100.0000   128621    5.26%
     76    60       99.0000    97       95.0000      100.0000   135592    5.26%
     80    62       99.0000   190       95.0000      100.0000   141133    5.26%
     88    68       98.0000   129       95.0000      100.0000   146353    5.26%
     93    72       99.0000    99       95.0000      100.0000   150422    5.26%
    102    77       97.7879   192       95.0000      100.0000   157235    5.26%
*   110+   75                           97.0000      100.0000             3.09%
    111    73       99.5000   253       97.0000      100.0000   163255    3.09%
    117    78       98.0000   203       97.0000      100.0000   168984    3.09%
Elapsed time = 40.95 sec. (43886.45 ticks, tree = 0.41 MB, solutions = 3)
    122    82       99.0000   189       97.0000      100.0000   173864    3.09%
    129    87       98.0000   229       97.0000      100.0000   181032    3.09%
    135    89       98.0000   181       97.0000      100.0000   188909    3.09%
    140    92       99.0000   176       97.0000      100.0000   194425    3.09%
    145    92       98.0000   201       97.0000      100.0000   202476    3.09%
    150    94       99.0000   133       97.0000      100.0000   208396    3.09%
    154    93    infeasible             97.0000      100.0000   219813    3.09%
    159    96    infeasible             97.0000      100.0000   226226    3.09%
    164    94       99.5000   248       97.0000      100.0000   235526    3.09%
    170    98       99.0000   185       97.0000      100.0000   239937    3.09%
Elapsed time = 51.87 sec. (54869.31 ticks, tree = 0.53 MB, solutions = 3)
    175   102       98.0000   161       97.0000      100.0000   247705    3.09%
    180   103       98.0000   138       97.0000      100.0000   256165    3.09%
    187   103    infeasible             97.0000      100.0000   267211    3.09%
    196   106    infeasible             97.0000      100.0000   275767    3.09%
    203   106       99.0000   243       97.0000      100.0000   284225    3.09%
    208   109       99.0000   194       97.0000      100.0000   289809    3.09%
    212   113       99.0000   118       97.0000      100.0000   294592    3.09%
    218   118       98.0000   177       97.0000      100.0000   300853    3.09%
    224   118    infeasible             97.0000      100.0000   309785    3.09%
    228   119       99.0000   207       97.0000      100.0000   318145    3.09%
Elapsed time = 62.66 sec. (65634.39 ticks, tree = 0.63 MB, solutions = 3)
    232   122       99.0000   218       97.0000      100.0000   325587    3.09%
    238   127       99.0000   191       97.0000      100.0000   330467    3.09%
    243   127       98.0000   205       97.0000      100.0000   338656    3.09%
    249   132       98.0000   169       97.0000      100.0000   346305    3.09%
    255   136       99.0000   213       97.0000      100.0000   352658    3.09%
    260   139       99.0000   186       97.0000      100.0000   357128    3.09%
    267   143       99.0000   222       97.0000      100.0000   363489    3.09%
    274   148        cutoff             97.0000      100.0000   368590    3.09%
    281   153       99.0000   162       97.0000      100.0000   373845    3.09%
    286   156       98.0000   167       97.0000      100.0000   381249    3.09%
Elapsed time = 73.71 sec. (76940.21 ticks, tree = 0.85 MB, solutions = 3)
    294   159    infeasible             97.0000      100.0000   389400    3.09%
    302   161       98.0000   136       97.0000      100.0000   396792    3.09%
    308   162    infeasible             97.0000      100.0000   405433    3.09%
    317   163    infeasible             97.0000      100.0000   416332    3.09%
    326   166    infeasible             97.0000      100.0000   425753    3.09%
    336   169       98.0000   224       97.0000      100.0000   434829    3.09%
    342   171    infeasible             97.0000      100.0000   440930    3.09%
    350   177       98.0000   189       97.0000      100.0000   445541    3.09%
    357   178       98.0000   192       97.0000      100.0000   452874    3.09%
    364   178       98.0000   187       97.0000      100.0000   460249    3.09%
Elapsed time = 84.43 sec. (87315.75 ticks, tree = 1.00 MB, solutions = 3)
    371   183       98.0000   172       97.0000      100.0000   465685    3.09%
    379   183       98.0000   177       97.0000      100.0000   475533    3.09%
    385   184       98.0000   204       97.0000      100.0000   484320    3.09%
    391   184    infeasible             97.0000      100.0000   494255    3.09%
    396   185       98.0000   171       97.0000      100.0000   502925    3.09%
    401   189       98.0000   133       97.0000      100.0000   508041    3.09%
    410   191       98.0000   112       97.0000      100.0000   514898    3.09%
    417   190    infeasible             97.0000      100.0000   525918    3.09%
    423   189       99.5000   283       97.0000      100.0000   539281    3.09%
    429   193       98.0000   262       97.0000      100.0000   544239    3.09%
Elapsed time = 95.68 sec. (98374.67 ticks, tree = 1.08 MB, solutions = 3)
    436   198       98.0000   249       97.0000      100.0000   549712    3.09%
    444   198    infeasible             97.0000      100.0000   559944    3.09%
    451   199       98.0000   149       97.0000      100.0000   568101    3.09%
    459   200    infeasible             97.0000      100.0000   577158    3.09%
    462   202       99.0000   272       97.0000      100.0000   582918    3.09%
    466   206       99.0000   200       97.0000      100.0000   589449    3.09%
    474   212       99.0000   186       97.0000      100.0000   593398    3.09%
    482   217       98.0000   181       97.0000      100.0000   599334    3.09%
    489   216    infeasible             97.0000      100.0000   609358    3.09%
    496   216    infeasible             97.0000      100.0000   617566    3.09%
Elapsed time = 106.60 sec. (109173.24 ticks, tree = 1.22 MB, solutions = 3)
    500   215       99.0000   227       97.0000      100.0000   622454    3.09%
    504   219       99.0000   271       97.0000      100.0000   626886    3.09%
    509   222        cutoff             97.0000      100.0000   631420    3.09%
    514   223    infeasible             97.0000      100.0000   638064    3.09%
    518   225       99.0000   214       97.0000      100.0000   643384    3.09%
    520   227       99.0000   110       97.0000      100.0000   649852    3.09%
    524   229       98.0000   178       97.0000      100.0000   656605    3.09%
    529   230       98.0000   151       97.0000      100.0000   666508    3.09%
    533   232       98.0000   134       97.0000      100.0000   673667    3.09%
    550   233       98.0000   188       97.0000      100.0000   704198    3.09%
Elapsed time = 120.39 sec. (123429.98 ticks, tree = 1.32 MB, solutions = 3)
    566   235    infeasible             97.0000      100.0000   735309    3.09%
    584   240    infeasible             97.0000      100.0000   759962    3.09%
    601   245    infeasible             97.0000      100.0000   788546    3.09%
    617   249       99.0000   162       97.0000      100.0000   814315    3.09%
    640   264       99.0000   165       97.0000      100.0000   832689    3.09%
    659   273       98.0000   204       97.0000      100.0000   854339    3.09%
    680   285       98.0000   209       97.0000      100.0000   877259    3.09%
    705   288    infeasible             97.0000      100.0000   909513    3.09%
    718   293       98.0000   236       97.0000      100.0000   937952    3.09%
    732   295    infeasible             97.0000      100.0000   963903    3.09%
Elapsed time = 159.09 sec. (162898.25 ticks, tree = 1.60 MB, solutions = 3)
    759   303       99.0000   250       97.0000      100.0000   973122    3.09%
    765   305       98.0000   226       97.0000      100.0000   987784    3.09%
    781   313       98.0000   340       97.0000      100.0000  1009973    3.09%
    830   341       99.0000   207       97.0000      100.0000  1023316    3.09%
    846   357       99.0000   242       97.0000      100.0000  1037508    3.09%
    874   385       99.0000   301       97.0000      100.0000  1042091    3.09%
    910   420       98.0000   282       97.0000      100.0000  1044458    3.09%
    944   447       99.8750   332       97.0000      100.0000  1050347    3.09%
    956   457       99.0000   378       97.0000      100.0000  1064338    3.09%

Performing restart 1

Repeating presolve.
Tried aggregator 1 time.
MIP Presolve eliminated 0 rows and 97 columns.
MIP Presolve modified 7356 coefficients.
Reduced MIP has 613 rows, 2503 columns, and 24318 nonzeros.
Reduced MIP has 2503 binaries, 0 generals, 0 SOSs, and 0 indicators.
Presolve time = 0.02 sec. (21.58 ticks)
Tried aggregator 1 time.
Reduced MIP has 613 rows, 2503 columns, and 24318 nonzeros.
Reduced MIP has 2503 binaries, 0 generals, 0 SOSs, and 0 indicators.
Presolve time = 0.02 sec. (16.67 ticks)
Represolve time = 0.15 sec. (97.16 ticks)
    959     0      100.0000   528       97.0000      Cuts: 27  1070122    3.09%
    959     0      100.0000   483       97.0000       Cuts: 7  1071888    3.09%
    959     0      100.0000   426       97.0000      Cuts: 21  1074530    3.09%
    959     0      100.0000   511       97.0000      Cuts: 15  1077639    3.09%
    959     0      100.0000   479       97.0000      Cuts: 16  1080573    3.09%
    959     0       99.9815   560       97.0000      Cuts: 26  1085164    3.07%
    959     0       99.0000   589       97.0000     Cuts: 238  1087450    2.06%
    959     0       99.0000   597       97.0000     Cuts: 136  1090022    2.06%
    959     0       99.0000   372       97.0000       Cuts: 6  1090761    2.06%
    959     0       99.0000   392       97.0000     Cuts: 144  1092055    2.06%
    959     2       99.0000   199       97.0000       99.0000  1092055    2.06%
Elapsed time = 249.50 sec. (256320.46 ticks, tree = 0.01 MB, solutions = 3)
    972    12       98.0000   364       97.0000       99.0000  1109543    2.06%
    988    24       99.0000   312       97.0000       99.0000  1128453    2.06%
    999    32       98.0000   273       97.0000       99.0000  1147682    2.06%
   1028    45       98.0000   325       97.0000       99.0000  1163594    2.06%
   1059    60       98.0000   208       97.0000       99.0000  1175760    2.06%
   1089    68       98.0000   288       97.0000       99.0000  1201185    2.06%
   1103    62       99.0000   317       97.0000       99.0000  1217575    2.06%
   1119    77       98.0000   214       97.0000       99.0000  1232849    2.06%
   1167    88       98.0000   238       97.0000       99.0000  1257169    2.06%
   1195    95       98.0000   240       97.0000       99.0000  1282323    2.06%
Elapsed time = 287.14 sec. (296092.82 ticks, tree = 0.12 MB, solutions = 3)
   1223   109       98.0000   113       97.0000       99.0000  1304230    2.06%
   1241   108        cutoff             97.0000       99.0000  1326769    2.06%
   1256   119       99.0000   293       97.0000       99.0000  1346284    2.06%
   1279   133       99.0000   140       97.0000       99.0000  1366860    2.06%
   1313   141       98.0000   185       97.0000       99.0000  1390618    2.06%
   1343   146       98.0000   180       97.0000       99.0000  1420635    2.06%
   1371   158       99.0000   244       97.0000       99.0000  1448005    2.06%
   1396   180       98.0000   238       97.0000       99.0000  1467437    2.06%
   1421   203       98.0000   277       97.0000       99.0000  1483509    2.06%
   1444   215    infeasible             97.0000       99.0000  1508304    2.06%
Elapsed time = 326.38 sec. (335427.10 ticks, tree = 0.52 MB, solutions = 3)
   1469   214       98.0000   147       97.0000       99.0000  1536975    2.06%
   1511   221       98.0000   247       97.0000       99.0000  1555069    2.06%
   1559   231    infeasible             97.0000       99.0000  1567201    2.06%
   1600   242    infeasible             97.0000       99.0000  1579314    2.06%
   1651   255       98.0000   132       97.0000       99.0000  1590529    2.06%
   1697   260       98.0000   264       97.0000       99.0000  1603716    2.06%
   1736   267    infeasible             97.0000       99.0000  1619278    2.06%
   1786   271       98.0000   215       97.0000       99.0000  1632270    2.06%
   1841   274       98.0000   185       97.0000       99.0000  1644851    2.06%
   1866   285       98.0000   298       97.0000       99.0000  1659732    2.06%
Elapsed time = 363.52 sec. (374033.13 ticks, tree = 0.59 MB, solutions = 3)
   1902   290    infeasible             97.0000       99.0000  1676422    2.06%
   1940   295       98.0000   227       97.0000       99.0000  1689587    2.06%
   1987   309       98.0000   217       97.0000       99.0000  1701172    2.06%
   2028   318       98.0000   235       97.0000       99.0000  1714919    2.06%
   2065   323    infeasible             97.0000       99.0000  1724614    2.06%
   2104   359       98.0000   293       97.0000       99.0000  1726719    2.06%
   2139   392    infeasible             97.0000       99.0000  1735054    2.06%
   2159   408       98.0000   229       97.0000       99.0000  1737463    2.06%
   2210   422    infeasible             97.0000       99.0000  1747290    2.06%
   2244   425       98.0000   209       97.0000       99.0000  1761263    2.06%
Elapsed time = 415.65 sec. (426957.68 ticks, tree = 0.74 MB, solutions = 3)
   2290   426       98.0000   245       97.0000       99.0000  1775543    2.06%
   2329   432       98.0000   102       97.0000       99.0000  1789131    2.06%
   2368   436       98.0000   220       97.0000       99.0000  1807240    2.06%
   2408   443       98.0000   216       97.0000       99.0000  1823046    2.06%
   2456   446    infeasible             97.0000       99.0000  1837881    2.06%
   2502   449       98.0000   177       97.0000       99.0000  1852843    2.06%
   2545   455       98.0000   186       97.0000       99.0000  1868148    2.06%
   2584   464       98.0000   276       97.0000       99.0000  1884339    2.06%
   2626   477       98.0000   220       97.0000       99.0000  1895076    2.06%
   2669   479       98.0000   219       97.0000       99.0000  1903910    2.06%
Elapsed time = 453.76 sec. (465640.16 ticks, tree = 0.81 MB, solutions = 3)
   2718   497       98.0000   228       97.0000       99.0000  1911186    2.06%
   2743   515       98.0000   297       97.0000       99.0000  1918936    2.06%
   2780   550       98.0000   318       97.0000       99.0000  1922344    2.06%
   2816   573       98.0000   266       97.0000       99.0000  1927270    2.06%
   2855   585       98.0000   248       97.0000       99.0000  1937936    2.06%
   2887   586       98.0000   251       97.0000       99.0000  1957820    2.06%
   2931   596       98.0000   202       97.0000       99.0000  1968167    2.06%
   2957   605       98.0000   202       97.0000       99.0000  1984394    2.06%
   2998   608       99.0000   194       97.0000       99.0000  1998799    2.06%
   3035   629       98.0000   185       97.0000       99.0000  2009590    2.06%
Elapsed time = 492.52 sec. (505030.43 ticks, tree = 0.99 MB, solutions = 3)
   3064   635       98.0000   230       97.0000       99.0000  2026448    2.06%
   3101   653       98.0000   169       97.0000       99.0000  2038143    2.06%
   3145   671       98.0000   187       97.0000       99.0000  2048763    2.06%
   3202   685       98.0000   171       97.0000       99.0000  2060786    2.06%
   3256   694       99.0000   236       97.0000       99.0000  2073433    2.06%
   3302   714       99.0000   215       97.0000       99.0000  2085760    2.06%
   3355   737    infeasible             97.0000       99.0000  2097438    2.06%
   3389   747       99.0000   227       97.0000       99.0000  2110828    2.06%
   3431   765       98.0000   180       97.0000       99.0000  2122755    2.06%
   3483   769       98.0000   215       97.0000       99.0000  2137381    2.06%
Elapsed time = 532.22 sec. (543648.00 ticks, tree = 1.15 MB, solutions = 3)
   3526   786       98.0000   249       97.0000       99.0000  2147886    2.06%
   3578   802       98.0000   297       97.0000       99.0000  2157136    2.06%
   3619   815       98.0000   196       97.0000       99.0000  2164092    2.06%
Starting limited solution polishing.
   3662   833       99.0000   211       97.0000       99.0000  2173540    2.06%
   3695   845    infeasible             97.0000       99.0000  2189234    2.06%
   3725   845       99.0000   225       97.0000       99.0000  2207145    2.06%
   3748   844    infeasible             97.0000       99.0000  2225877    2.06%
   3779   850       98.0000   240       97.0000       99.0000  2240251    2.06%
   3822   858       98.0000   255       97.0000       99.0000  2252524    2.06%
   3869   874       98.0000   272       97.0000       99.0000  2263413    2.06%
Elapsed time = 571.74 sec. (582884.82 ticks, tree = 1.28 MB, solutions = 3)
   3914   889       98.0000   253       97.0000       99.0000  2272454    2.06%
   3959   903       98.0000   258       97.0000       99.0000  2283835    2.06%
   3992   915       99.0000   185       97.0000       99.0000  2297663    2.06%
   4027   929    infeasible             97.0000       99.0000  2307707    2.06%
   4062   947       98.0000   214       97.0000       99.0000  2320050    2.06%
   4105   948       99.0000   275       97.0000       99.0000  2336400    2.06%
   4129   963        cutoff             97.0000       99.0000  2348748    2.06%

Clique cuts applied:  79
Zero-half cuts applied:  47
Gomory fractional cuts applied:  6

Root node processing (before b&c):
  Real time             =   13.61 sec. (14822.43 ticks)
Sequential b&c:
  Real time             =  586.08 sec. (596186.38 ticks)
                          ------------
Total (root+branch&cut) =  599.69 sec. (611008.81 ticks)
Primal:	97
Dual:	99
Status:	Feasible
Time:	599.69
Sequence:
	17
	2
	10
	4
	3
	6
	0
	23
	10
	4
	15
	8
	19
	12
	10
	6
	15
	24
	1
	12
	0
	4
	17
	7
	19
	4
	5
	6
	1
	13
	1
	6
	3
	4
	17
	13
	1
	4
	5
	6
	19
	7
	1
	6
	0
	12
	4
	16
	9
	4
	0
	12
	19
	8
	1
	9
	10
	14
	17
	7
	17
	4
	16
	6
	10
	9
	4
	16
	9
	1
	8
	18
	4
	20
	4
	1
	7
	1
	22
	3
	6
	1
	7
	21
	4
	0
	12
	1
	24
	15
	4
	0
	4
	12
	0
	14
	15
